
  32   50
   9   10   10   10   11    7   16    7   10   10   13    8    9   16   19   13    7    8   15   15   19   15   10    9   13    4    0   13    3   11   11    5    0    0    0    0    0    0    0    0    0    0    0    0    0    0    0    0    0    0

   0   0   0   0   0   0   0   0   0   0   0   0   0   0   0   0   0   0   0   0   0   0   0   0   0   0   0   0   0   0   0   0   0   0   0   0   0   0   0   0   0   0   0   0   0   0   0   0   0   0   0  10 2 3 4 6 7 8 9 10 12 13 
   1   0  10   5   0   0   0   0   0   0   0   0   0   0   0   6   0   0   0   0   7   0   0   0   0   0   0   0   0   0   0   5   0   0   0   0   0   0   0   0   0   0   0   0   0   0   0   0   0   0   0  10 30 28 27 25 20 19 18 16 15 14 
   4   0   0   0   0  10   0   0   0   0   0   0   0   0   2   0   0   0   0   4   0   0   0   0   0   1   0   0   0   0   0   0   0   0   0   0   0   0   0   0   0   0   0   0   0   0   0   0   0   0   0   7 28 27 25 19 17 14 11 
   7   0   0   0   0   0   0   0   0   0   0   0   0   0   0   0   0   0   0   0   0   0   0   0   0   0   0   0   0   0   0   0   2   0   0   0   0   0   0   0   0   0   0   0   0   0   0   0   0   0   0   2 31 5 
   4   0   0   0   0   0   0   0   0   6   4   6   0   0   0   0   0   0   0   0   0   0   0   0   2   0   0   0   0   0   0   0   0   0   0   0   0   0   0   0   0   0   0   0   0   0   0   0   0   0   0   6 28 27 25 19 16 11 
  10   0   0   7   0   1   0   0   0   0   0   0   0   1   7   0   0   0   0   0   0   0   0   0   0   0   0   0   0   0   9   0   0   0   0   0   0   0   0   0   0   0   0   0   0   0   0   0   0   0   0   8 30 29 27 25 24 18 16 15 
  10   0   0   0   0   0   0   0   0   1   0   0   0   0   0   0   0   0   0   0   0   8   0   0   0   0   0   0  10   0   3   0   0   0   0   0   0   0   0   0   0   0   0   0   0   0   0   0   0   0   0   5 27 26 25 23 14 
   1   0   0   0   0   0   6   0   0   0   0   0   0   0   3   0   0   0   0   5   4   0   0   0   0   0   0   0   0   0   0   0   4   0   0   0   0   0   0   0   0   0   0   0   0   0   0   0   0   0   0   6 26 25 24 23 21 19 
   7   0   0   0   0   0   3   0   0   0   0   0   0   0   0   8   0   0   0   0   0   0   0   0   0   4   0   0   0   0   0   0   0   0   0   0   0   0   0   0   0   0   0   0   0   0   0   0   0   0   0   5 29 24 21 19 18 
   6   9   0   0   0   0   0   0   0  10   0   7   0   0   0   0   0   0   0   0   0   6   3   0   0   0   4   0   0   0   0   0   0   0   0   0   0   0   0   0   0   0   0   0   0   0   0   0   0   0   0   6 28 27 25 24 22 21 
   1   0   6   0   0   0   0   0   0   0   0  10   0   0   0   0   0   0   0   4   0   0   0   0   0   0   0   0   0   0   7   0   0   0   0   0   0   0   0   0   0   0   0   0   0   0   0   0   0   0   0   5 30 26 24 22 18 
  10   0   0   0   0   0   0   0   0   0   0   0   5   0   9   0  10   0   0  10   0   0   0   0   0  10   0   0   0   0   0   0   0   0   0   0   0   0   0   0   0   0   0   0   0   0   0   0   0   0   0   4 25 23 22 17 
   6   0   0   0   0   1   0   0   0   0   7   1   0   6   0   2   0   0   0   0   0   0   0   2   0   0   0   0   0   0   0   0   0   0   0   0   0   0   0   0   0   0   0   0   0   0   0   0   0   0   0   5 31 28 25 23 21 
  10   0   0   0   0   5   0   0   0   0   0   0   8   0   0   0   0   0   0   0   0   0   0   0   0   0   0   0   0   0   0   0   0   0   0   0   0   0   0   0   0   0   0   0   0   0   0   0   0   0   0   3 29 24 22 
   6   0   0   0   0   0   0   0   0   0   0   0   0   0   0   0   0   0   0   0   0   0   6   0   0   8   0   0   0   0   2   0   0   0   0   0   0   0   0   0   0   0   0   0   0   0   0   0   0   0   0   3 26 22 21 
   2   0   0   0   0   0   0   0   5   4   6   0   0   0   6   0   0   0   0   0   0   0   0   0   0   0   0   0   0   0   4   0   0   0   0   0   0   0   0   0   0   0   0   0   0   0   0   0   0   0   0   2 23 21 
   8   0   0   0   0   0   5   0   0   1   0   0   0   7   0   0   8   0   0   0   0   0   0   0   0   0   0   0   0   3   0   0   0   0   0   0   0   0   0   0   0   0   0   0   0   0   0   0   0   0   0   2 31 21 
   9   0   0   4  10   0   0   0   0   0   0   0   0   0   0   0   0   7   0   0   0   0   9   7   0   0   0   0   0   0   0   8   0   0   0   0   0   0   0   0   0   0   0   0   0   0   0   0   0   0   0   1 23 
  10   0   1   0   0   0   0   3   0   0   0   5   0   0   0   9   0   0   0   0   0   0   4   0   0   0   1   0   0   0   0   0   0   0   0   0   0   0   0   0   0   0   0   0   0   0   0   0   0   0   0   1 22 
   4   0   0   0   0   0   0   0   0   0   2   0   0   2   0   0   0   0   0   0   0  10   0   0   0   0   0   0   0   0   0   7   0   0   0   0   0   0   0   0   0   0   0   0   0   0   0   0   0   0   0   1 21 
  10   0   0   0   0   0   0   0   7   0   0   2   0   0   0   0   0   0   0   0  10   0   0   6   0   4   0   0   5   0   0   0   4   0   0   0   0   0   0   0   0   0   0   0   0   0   0   0   0   0   0   1 32
   6   0   0   0   0   7   0   0   0   0   0   2   0   0   0   0   0   0   5   0   0   0   0   0   0   0   0   0   0   0   0   0   0   0   0   0   0   0   0   0   0   0   0   0   0   0   0   0   0   0   0   1 32
   5   0   0   1   0   0   0   0   0   0   0   0   3   0   0   0   0   0   0   0   0   8   5   0   0   0   0   0   0   0   1   5   0   0   0   0   0   0   0   0   0   0   0   0   0   0   0   0   0   0   0   1 32
   7   0   0   7   0   0   0   7   0   0   0   0   0   0   0   0   0   0   0   0   8   0   0   0   0   0   0   0   0   0   0   0   0   0   0   0   0   0   0   0   0   0   0   0   0   0   0   0   0   0   0   1 32
   3   0   0   0   0   0   0   0   0   0   0   0   0   0   0   0   0   0   8   0   0   0   0   0   0   0   0   0   0   0   0   0   0   0   0   0   0   0   0   0   0   0   0   0   0   0   0   0   0   0   0   1 32
   8   0   0   0   0   0   0   0   0   0   0   0   0   0   0   0   0   0   0   7   0   0   0   0   8   0   0   0   0   0   0   0   3   0   0   0   0   0   0   0   0   0   0   0   0   0   0   0   0   0   0   1 32
   2   0   0   0   0   0   1   0   0   4   0   0   0   0   9   5   0   0   0   0   0   0   0   0   0   0   0   0   0   0   0   0   0   0   0   0   0   0   0   0   0   0   0   0   0   0   0   0   0   0   0   1 32
  10   0   0   0   0   0   0   6   0   0   0   0   1   0   0   0   8   0   0   0   0   0   0   0   0   0   0   0   2   0   0   5   0   0   0   0   0   0   0   0   0   0   0   0   0   0   0   0   0   0   0   1 32
   8   0   0   0   0   0   0   6   0   0   5   0   0   9   0   0   8   0   0   0   0   0   0   0   3   0   0   0   1   0   2   0   0   0   0   0   0   0   0   0   0   0   0   0   0   0   0   0   0   0   0   1 32
   8   0   0   0   0   0   0   0   0   0   7   2   0   0   5  10   0   0   0   0   0   0   0   0   0   0   0   0   0   0   0   0   0   0   0   0   0   0   0   0   0   0   0   0   0   0   0   0   0   0   0   1 32
   2   6   0   0   0   0   0   0   0   0   0   0   0   0   0   0   0   0   0   0   0   0   0   0   0   0   0   0   8   0   0   0   0   0   0   0   0   0   0   0   0   0   0   0   0   0   0   0   0   0   0   1 32
   0   0   0   0   0   0   0   0   0   0   0   0   0   0   0   0   0   0   0   0   0   0   0   0   0   0   0   0   0   0   0   0   0   0   0   0   0   0   0   0   0   0   0   0   0   0   0   0   0   0   0   0 
